\ENCODING=ISO-8859-1
\Problem name: resolve problem RL

Minimize
 obj: 9 x_0 + 8 x_1 + 7 x_2 + 5 x_3 + 2 x_4 + 8 x_6 + 4 x_7 + 3 x_8 + 9 x_9
Subject To
 c1: x_0 - 17 x_5 + 5 x_6 + 7 x_7 - 13 x_8 - 12 x_9  = 3
 c2: x_1 - 8 x_5 - 5 x_6 - 10 x_7 - 7 x_8 + 16 x_9  = 18
 c3: x_2 - 5 x_5 - 11 x_6 - 10 x_7 + 11 x_8 + 2 x_9  = 5
 c4: x_3 - 5 x_5 - 15 x_6 - 7 x_7 - 10 x_8 - 2 x_9  = 17
 c5: x_4 - 10 x_5 - 8 x_6 - 6 x_7 - 6 x_8 + 20 x_9  = 28
End
